\ Model OptModel_copy
\ LP format - for model browsing. Use MPS format to capture full model detail.
Minimize
 
Subject To
 R32219: q_cw4602 - 0.72 p_cw4602 = 0
 R32220: - p_cw_inst + p_cw4602 <= 0
 R75128: q_cw4602 = 220.1731994451283
Bounds
 -infinity <= p_cw_inst <= 0
 q_cw4602 free
 p_cw4602 free
End
